
Log started (V12.10.0.0) Tue Apr 20 04:53:01 2021


Problem 'asset.lp' read.
Read time = 0.01 sec. (0.34 ticks)
New value for default parallel thread count: 1
New value for time limit in seconds: 250
Version identifier: 12.10.0.0 | 2019-11-26 | 843d4de
CPXPARAM_Threads                                 1
CPXPARAM_TimeLimit                               250
Found incumbent of value 0.000000 after 0.00 sec. (0.09 ticks)
Tried aggregator 4 times.
MIP Presolve eliminated 1384 rows and 119 columns.
MIP Presolve modified 2807 coefficients.
Aggregator did 967 substitutions.
Reduced MIP has 1237 rows, 1337 columns, and 5821 nonzeros.
Reduced MIP has 1141 binaries, 149 generals, 0 SOSs, and 0 indicators.
Presolve time = 0.02 sec. (16.52 ticks)
Probing fixed 532 vars, tightened 60 bounds.
Probing time = 0.01 sec. (4.07 ticks)
Cover probing fixed 0 vars, tightened 209 bounds.
Tried aggregator 1 time.
MIP Presolve eliminated 897 rows and 755 columns.
MIP Presolve modified 100 coefficients.
Reduced MIP has 340 rows, 568 columns, and 1639 nonzeros.
Reduced MIP has 478 binaries, 72 generals, 0 SOSs, and 0 indicators.
Presolve time = 0.00 sec. (2.59 ticks)
Probing time = 0.00 sec. (1.17 ticks)
Tried aggregator 1 time.
Detecting symmetries...
MIP Presolve modified 60 coefficients.
Reduced MIP has 340 rows, 568 columns, and 1639 nonzeros.
Reduced MIP has 478 binaries, 72 generals, 0 SOSs, and 0 indicators.
Presolve time = 0.00 sec. (1.29 ticks)
Probing time = 0.00 sec. (1.16 ticks)
Clique table members: 1867.
MIP emphasis: balance optimality and feasibility.
MIP search method: dynamic search.
Parallel mode: none, using 1 thread.
Root relaxation solution time = 0.00 sec. (3.45 ticks)

        Nodes                                         Cuts/
   Node  Left     Objective  IInf  Best Integer    Best Bound    ItCnt     Gap

*     0+    0                            0.0000      750.0000              --- 
      0     0      364.6308    84        0.0000      364.6308      328     --- 
      0     0      344.5899    84        0.0000     Cuts: 164      454     --- 
      0     0      336.0159    84        0.0000     Cuts: 129      552     --- 
*     0+    0                          260.0000      336.0159            29.24%
      0     0      332.1446    84      260.0000      Cuts: 65      598   27.75%
      0     0      330.9106    84      260.0000      Cuts: 37      633   27.27%
      0     0      328.1561    84      260.0000      Cuts: 32      691   26.21%
      0     0      327.2602    84      260.0000      Cuts: 68      747   25.87%
      0     0      326.3895    84      260.0000      Cuts: 34      810   25.53%
      0     0      325.3920    84      260.0000      Cuts: 39      846   25.15%
      0     0      324.4292    84      260.0000      Cuts: 63      890   24.78%
      0     0      322.8815    84      260.0000      Cuts: 53      912   24.19%
      0     0      322.7383    84      260.0000      Cuts: 33      944   24.13%
*     0+    0                          275.0000      322.7383            17.36%
      0     0      320.4167    84      275.0000      Cuts: 40      985   16.52%
      0     0      320.4167    84      275.0000      Cuts: 14     1011   16.52%
      0     0      320.0000    84      275.0000      Cuts: 21     1033   16.36%
      0     0      320.0000    84      275.0000      Cuts: 39     1062   16.36%
      0     2      320.0000    64      275.0000      320.0000     1062   16.36%
Elapsed time = 0.18 sec. (140.22 ticks, tree = 0.01 MB, solutions = 2)
    431   357      316.2500    91      275.0000      319.8375     8945   16.30%
*   453   327      integral     0      280.0000      319.8375     9231   14.23%
*   553+  353                          285.0000      318.7500            11.84%
*   654   354      integral     0      290.0000      318.6214    13196    9.87%
*   754+  326                          295.0000      317.3915             7.59%
    771   327      314.3995    99      295.0000      317.1073    16622    7.49%
   1045   488      303.8574    63      295.0000      316.0594    24350    7.14%
   1290   595      311.9493    88      295.0000      315.0000    31810    6.78%

Performing restart 1

Repeating presolve.
Tried aggregator 1 time.
MIP Presolve modified 210 coefficients.
Reduced MIP has 340 rows, 568 columns, and 1503 nonzeros.
Reduced MIP has 478 binaries, 72 generals, 0 SOSs, and 0 indicators.
Presolve time = 0.00 sec. (1.49 ticks)
Tried aggregator 1 time.
Reduced MIP has 340 rows, 568 columns, and 1503 nonzeros.
Reduced MIP has 478 binaries, 72 generals, 0 SOSs, and 0 indicators.
Presolve time = 0.00 sec. (1.26 ticks)
Represolve time = 0.01 sec. (9.17 ticks)
   1351     0      314.5012   122      295.0000      Cuts: 68    34438    6.61%
   1351     0      309.0797   122      295.0000     Cuts: 105    34536    4.77%
   1351     0      306.8647   122      295.0000      Cuts: 83    34596    4.02%
   1351     0      306.8182   122      295.0000      Cuts: 60    34631    4.01%

Repeating presolve.
Tried aggregator 2 times.
MIP Presolve eliminated 100 rows and 159 columns.
MIP Presolve modified 479 coefficients.
Aggregator did 9 substitutions.
Reduced MIP has 231 rows, 400 columns, and 1300 nonzeros.
Reduced MIP has 340 binaries, 47 generals, 0 SOSs, and 0 indicators.
Presolve time = 0.01 sec. (2.72 ticks)
Tried aggregator 2 times.
MIP Presolve eliminated 9 rows and 5 columns.
MIP Presolve modified 2 coefficients.
Aggregator did 1 substitutions.
Reduced MIP has 221 rows, 394 columns, and 1271 nonzeros.
Reduced MIP has 337 binaries, 44 generals, 0 SOSs, and 0 indicators.
Presolve time = 0.00 sec. (1.25 ticks)
Tried aggregator 1 time.
MIP Presolve eliminated 7 rows and 2 columns.
MIP Presolve modified 26 coefficients.
Reduced MIP has 214 rows, 392 columns, and 1234 nonzeros.
Reduced MIP has 336 binaries, 44 generals, 0 SOSs, and 0 indicators.
Presolve time = 0.00 sec. (1.23 ticks)
Represolve time = 0.02 sec. (14.21 ticks)
   1351     0      304.8570    47      295.0000      Cuts: 69    35079    3.34%
   1351     0      304.7457    47      295.0000      Cuts: 47    35102    3.30%
   1351     0      304.6073    47      295.0000      Cuts: 64    35134    3.26%
   1351     0      304.5111    47      295.0000      Cuts: 42    35147    3.22%
   1351     0      303.9362    47      295.0000      Cuts: 33    35177    3.03%
   1351     0      303.7913    47      295.0000      Cuts: 45    35201    2.98%
   1351     0      303.5540    47      295.0000      Cuts: 37    35238    2.90%
   1351     0      303.2968    47      295.0000      Cuts: 58    35266    2.81%
   1351     0      302.8730    47      295.0000      Cuts: 40    35299    2.67%
   1351     0      302.7893    47      295.0000      Cuts: 57    35329    2.64%
   1351     0      302.3108    47      295.0000      Cuts: 34    35361    2.48%
   1351     0      302.2409    47      295.0000      Cuts: 54    35395    2.45%
   1351     0      301.8116    47      295.0000      Cuts: 42    35434    2.31%
   1351     0      301.2704    47      295.0000      Cuts: 57    35459    2.13%
   1351     0      301.0794    47      295.0000      Cuts: 32    35482    2.06%
   1351     0      300.8022    47      295.0000      Cuts: 52    35523    1.97%
   1351     0      300.6890    47      295.0000      Cuts: 39    35553    1.93%
   1351     0      300.4690    47      295.0000      Cuts: 43    35591    1.85%
   1351     0      300.4471    47      295.0000      Cuts: 33    35610    1.85%
   1351     0      300.4435    47      295.0000      Cuts: 22    35645    1.85%
   1351     0      300.4310    47      295.0000      Cuts: 14    35660    1.84%
   1351     0      300.0000    47      295.0000      Cuts: 48    35677    1.69%
   1351     0      300.0000    47      295.0000      Cuts: 29    35702    1.69%
   1351     0        cutoff            295.0000                  35704     --- 

GUB cover cuts applied:  8
Clique cuts applied:  29
Cover cuts applied:  12
Implied bound cuts applied:  12
Flow cuts applied:  2
Mixed integer rounding cuts applied:  16
Zero-half cuts applied:  36
Lift and project cuts applied:  3
Gomory fractional cuts applied:  1

Root node processing (before b&c):
  Real time             =    0.18 sec. (140.33 ticks)
Sequential b&c:
  Real time             =    1.57 sec. (1449.41 ticks)
                          ------------
Total (root+branch&cut) =    1.75 sec. (1589.74 ticks)

Solution pool: 7 solutions saved.

MIP - Integer optimal solution:  Objective =  2.9500000000e+02
Solution time =    1.75 sec.  Iterations = 35704  Nodes = 1351
Deterministic time = 1589.75 ticks  (907.16 ticks/sec)


Incumbent solution
Variable Name           Solution Value
F                           295.000000
y124                          1.000000
y145                          1.000000
y82                           1.000000
y33                           1.000000
y65                           1.000000
y29                           1.000000
y3                            1.000000
y262                          1.000000
y108                          1.000000
y186                          1.000000
y265                          1.000000
y240                          1.000000
y258                          1.000000
y248                          1.000000
y188                          1.000000
y128                          1.000000
y147                          1.000000
x131x82x1                     1.000000
x131x65x1                     1.000000
x122x33x1                     1.000000
x242x186x1                    2.000000
x1x258x1                      2.000000
x13x3x1                       1.000000
x154x124x2                    1.000000
x103x82x2                     1.000000
x103x33x2                     1.000000
x183x29x2                     1.000000
x197x145x2                    2.000000
x32x29x2                      1.000000
x167x3x2                      1.000000
x167x108x2                    1.000000
x183x65x3                     1.000000
x122x124x3                    1.000000
x148x262x3                    1.000000
x148x265x3                    1.000000
x32x147x3                     1.000000
x126x128x3                    2.000000
x249x108x3                    1.000000
x249x265x3                    1.000000
x124x240x2                    1.000000
x124x240x3                    1.000000
x145x262x2                    1.000000
x145x147x2                    1.000000
x82x0x1                       1.000000
x82x0x2                       1.000000
x33x188x1                     1.000000
x33x188x2                     1.000000
x65x0x1                       1.000000
x65x0x3                       1.000000
x29x0x2                       2.000000
x3x0x1                        1.000000
x3x0x2                        1.000000
x262x0x2                      1.000000
x262x0x3                      1.000000
x108x0x2                      1.000000
x108x0x3                      1.000000
x186x248x1                    2.000000
x265x0x3                      2.000000
x240x0x2                      1.000000
x240x0x3                      1.000000
x258x0x1                      2.000000
x248x0x1                      2.000000
x188x0x1                      1.000000
x188x0x2                      1.000000
x128x0x3                      2.000000
x147x0x2                      1.000000
x147x0x3                      1.000000
s154                          6.606871
s124                          8.096471
z154z124z2                    1.000000
s16                           7.360000
s87                           7.410000
s136                          7.894434
s27                           8.510132
s145                          7.778518
s155                          7.550000
s73                           7.560000
s264                          8.614616
s206                          7.700000
s82                           8.720000
s111                          8.740000
s96                           8.750000
s178                          8.780000
s112                          8.800000
s33                           8.219595
s125                          8.930000
s29                           8.932816
s3                            9.000000
s262                          9.030000
s159                          9.050000
s108                          9.110000
s240                          9.210000
s50                           9.220000
s166                          9.350000
z154z166z2                    1.000000
s170                          9.350000
s188                          9.430000
s147                          9.490000
s103                          6.946153
z103z264z2                    1.000000
z103z82z2                     1.000000
z103z33z2                     1.000000
z103z166z2                    1.000000
s183                          7.072178
s30                           7.310000
s225                          7.480000
s194                          7.490000
s22                           8.435084
s54                           8.610000
s93                           8.620000
s61                           8.690000
s143                          8.720000
s121                          8.730000
s180                          8.730000
s25                           8.800000
s65                           8.820000
z183z65z3                     1.000000
s232                          8.860000
z183z29z2                     1.000000
s209                          8.950000
s204                          9.010000
s6                            9.050000
s58                           9.110000
s62                           9.110000
s211                          9.110000
s265                          9.190000
s5                            9.330000
s20                           9.350000
s74                           9.350000
s128                          9.470000
z183z128z3                    1.000000
s131                          7.111936
s156                          8.383770
z131z156z1                    1.000000
s88                           8.462137
z131z88z1                     1.000000
s64                           8.487741
z131z64z1                     1.000000
s26                           8.590000
z131z26z1                     1.000000
z131z82z1                     1.000000
z131z65z1                     1.000000
s184                          9.050000
z131z184z1                    1.000000
s234                          9.140000
z131z234z1                    1.000000
s186                          8.318918
s258                          9.250000
z131z258z1                    1.000000
s248                          9.340000
s122                          6.938154
z122z124z3                    1.000000
s161                          8.457034
z122z33z1                     1.000000
z122z258z1                    1.000000
z122z248z1                    1.000000
z122z128z3                    1.000000
s148                          7.243182
z148z209z3                    1.000000
z148z262z3                    1.000000
z148z6z3                      1.000000
z148z58z3                     1.000000
z148z211z3                    1.000000
z148z265z3                    1.000000
z148z20z3                     1.000000
z148z128z3                    1.000000
s197                          6.470347
z197z136z2                    1.000000
z197z145z2                    1.000000
z197z264z2                    1.000000
z197z206z2                    1.000000
z197z29z2                     1.000000
z197z166z2                    1.000000
s32                           7.385868
z32z29z2                      1.000000
z32z128z3                     1.000000
z32z147z3                     1.000000
s126                          7.754895
z126z209z3                    1.000000
z126z211z3                    1.000000
z126z265z3                    1.000000
z126z128z3                    1.000000
s242                          6.982400
z242z161z1                    1.000000
z242z88z1                     1.000000
z242z64z1                     1.000000
z242z26z1                     1.000000
z242z184z1                    1.000000
z242z234z1                    1.000000
z242z186z1                    1.000000
z242z258z1                    1.000000
z242z248z1                    1.000000
s1                            7.494149
z1z184z1                      1.000000
z1z234z1                      1.000000
z1z258z1                      1.000000
s249                          7.768149
z249z209z3                    1.000000
z249z108z3                    1.000000
z249z211z3                    1.000000
z249z265z3                    1.000000
z249z128z3                    1.000000
s13                           7.709815
z13z3z1                       1.000000
z13z234z1                     1.000000
z13z248z1                     1.000000
s167                          7.428018
z167z3z2                      1.000000
z167z108z2                    1.000000
z167z166z2                    1.000000
z124z240z2                    1.000000
z124z240z3                    1.000000
z225z128z3                    1.000000
z194z128z3                    1.000000
z145z262z2                    1.000000
z145z147z2                    1.000000
z33z188z1                     1.000000
z33z188z2                     1.000000
z186z248z1                    1.000000
All other variables in the range 1-2425 are 0.
